<number of tasks>
100

<cycle time>
1000

<order strength>
0.596


<task times>
1 549
2 469
3 523
4 490
5 472
6 593
7 550
8 684
9 453
10 425
11 441
12 545
13 606
14 502
15 455
16 616
17 578
18 632
19 591
20 851
21 874
22 751
23 607
24 402
25 671
26 585
27 596
28 527
29 412
30 555
31 674
32 533
33 481
34 293
35 414
36 448
37 403
38 635
39 448
40 345
41 784
42 496
43 528
44 700
45 461
46 520
47 651
48 351
49 648
50 475
51 402
52 654
53 321
54 481
55 571
56 546
57 473
58 418
59 581
60 412
61 489
62 553
63 390
64 340
65 434
66 386
67 483
68 667
69 462
70 537
71 675
72 395
73 476
74 573
75 330
76 389
77 469
78 535
79 333
80 479
81 469
82 394
83 453
84 337
85 392
86 637
87 426
88 433
89 420
90 678
91 506
92 611
93 500
94 641
95 670
96 366
97 538
98 484
99 416
100 481

<precedence relations>
1,59
2,59
3,59
4,75
5,75
6,7
6,8
6,9
7,36
8,12
8,14
8,15
9,10
9,11
9,13
9,16
9,20
9,21
9,22
9,23
10,24
11,24
12,94
13,94
14,36
15,16
15,17
15,18
15,19
15,20
15,21
15,22
15,23
16,24
17,24
18,24
19,94
20,36
21,25
21,27
21,28
22,26
23,24
24,29
24,30
24,31
24,32
24,33
24,34
24,35
24,37
25,36
26,36
27,36
27,37
27,43
28,36
28,37
28,43
29,43
29,44
29,45
29,46
29,47
30,43
30,44
30,45
30,46
30,47
31,53
31,58
32,58
32,96
33,43
34,43
34,44
35,43
36,38
36,39
36,40
36,41
36,42
37,44
37,51
38,44
38,47
39,55
39,59
40,44
40,45
40,51
40,54
41,44
41,46
42,44
42,62
42,86
43,48
43,49
43,50
43,51
44,94
45,59
46,48
46,49
46,50
46,51
47,48
47,51
48,75
49,75
50,52
50,54
50,56
51,53
51,55
51,57
52,59
53,59
54,75
55,58
55,61
55,62
55,63
55,75
56,61
56,62
56,87
56,91
56,92
57,60
58,94
59,64
59,65
59,66
59,67
59,68
59,69
59,70
59,71
59,72
59,73
59,74
60,75
63,76
64,89
65,93
66,85
66,86
68,96
69,93
70,85
70,86
70,89
70,90
71,86
71,87
71,90
72,85
74,89
74,90
75,77
75,78
75,79
75,80
75,81
75,82
75,83
75,84
75,85
75,86
76,85
76,86
76,91
77,87
77,92
78,94
80,93
81,87
81,91
81,96
82,88
82,89
82,90
83,87
83,88
85,87
85,88
85,92
86,88
86,92
87,94
88,93
88,94
89,91
89,92
90,95
90,96
91,94
92,94
93,95
93,96
94,97
94,98
94,99
94,100

<end>
